25° run output:
{
    "Function": "kroA400.tsp",
    "Problem dimension": [
        351,
        153,
        162,
        26,
        283,
        304,
        288,
        91,
        197,
        140,
        350,
        58,
        344,
        391,
        31,
        171,
        266,
        231,
        314,
        53,
        343,
        108,
        237,
        247,
        20,
        82,
        124,
        61,
        74,
        347,
        395,
        330,
        282,
        202,
        154,
        268,
        182,
        87,
        367,
        273,
        51,
        9,
        62,
        15,
        103,
        245,
        29,
        225,
        79,
        201,
        139,
        213,
        253,
        219,
        346,
        260,
        85,
        143,
        73,
        248,
        223,
        264,
        144,
        116,
        380,
        357,
        75,
        159,
        320,
        141,
        353,
        152,
        158,
        214,
        181,
        1,
        379,
        212,
        280,
        364,
        396,
        95,
        188,
        384,
        342,
        76,
        269,
        339,
        338,
        209,
        138,
        311,
        289,
        315,
        193,
        24,
        222,
        125,
        10,
        47,
        356,
        63,
        40,
        310,
        54,
        218,
        57,
        374,
        98,
        84,
        298,
        23,
        17,
        230,
        68,
        187,
        155,
        259,
        221,
        66,
        270,
        232,
        119,
        210,
        133,
        250,
        179,
        3,
        198,
        117,
        44,
        190,
        65,
        386,
        373,
        127,
        294,
        30,
        191,
        174,
        389,
        352,
        274,
        306,
        295,
        242,
        337,
        376,
        16,
        278,
        149,
        208,
        233,
        72,
        166,
        325,
        43,
        93,
        302,
        56,
        263,
        371,
        313,
        67,
        157,
        309,
        257,
        55,
        383,
        387,
        100,
        291,
        77,
        393,
        173,
        204,
        279,
        236,
        369,
        297,
        88,
        163,
        345,
        322,
        399,
        385,
        203,
        362,
        336,
        38,
        161,
        176,
        112,
        34,
        365,
        132,
        194,
        27,
        19,
        60,
        25,
        375,
        99,
        126,
        14,
        96,
        80,
        251,
        252,
        6,
        8,
        39,
        131,
        177,
        370,
        21,
        7,
        45,
        241,
        137,
        335,
        146,
        308,
        59,
        89,
        217,
        134,
        271,
        4,
        107,
        189,
        0,
        262,
        118,
        243,
        326,
        142,
        265,
        129,
        102,
        397,
        101,
        69,
        42,
        151,
        254,
        333,
        355,
        120,
        135,
        324,
        172,
        331,
        196,
        52,
        296,
        318,
        211,
        168,
        226,
        229,
        234,
        35,
        105,
        381,
        78,
        148,
        303,
        328,
        317,
        244,
        334,
        349,
        390,
        136,
        354,
        235,
        199,
        228,
        2,
        305,
        366,
        12,
        239,
        286,
        178,
        50,
        83,
        377,
        267,
        276,
        301,
        86,
        327,
        92,
        185,
        18,
        292,
        41,
        323,
        33,
        258,
        123,
        122,
        150,
        64,
        321,
        81,
        206,
        121,
        114,
        215,
        392,
        183,
        28,
        300,
        341,
        340,
        287,
        169,
        36,
        200,
        398,
        165,
        32,
        382,
        160,
        5,
        46,
        363,
        170,
        394,
        249,
        272,
        186,
        110,
        11,
        192,
        22,
        167,
        195,
        90,
        261,
        246,
        284,
        358,
        71,
        70,
        240,
        256,
        275,
        316,
        37,
        227,
        255,
        184,
        156,
        106,
        299,
        97,
        145,
        360,
        224,
        277,
        238,
        113,
        147,
        216,
        128,
        372,
        290,
        312,
        130,
        164,
        361,
        94,
        281,
        175,
        104,
        329,
        13,
        109,
        48,
        207,
        378,
        111,
        49,
        332,
        220,
        359,
        115,
        205,
        285,
        348,
        307,
        388,
        180,
        368,
        293,
        319
    ],
    "Global Optimum": 0,
    "Algorithm": "Genetic algorithm",
    "Parameters": {
        "population": 30,
        "offspring": 30,
        "mutation probability": 0.0025,
        "crossover probability": 0.9
    },
    "Fitness": 417366,
    "Solution": [
        351,
        153,
        162,
        26,
        283,
        304,
        288,
        91,
        197,
        140,
        350,
        58,
        344,
        391,
        31,
        171,
        266,
        231,
        314,
        53,
        343,
        108,
        237,
        247,
        20,
        82,
        124,
        61,
        74,
        347,
        395,
        330,
        282,
        202,
        154,
        268,
        182,
        87,
        367,
        273,
        51,
        9,
        62,
        15,
        103,
        245,
        29,
        225,
        79,
        201,
        139,
        213,
        253,
        219,
        346,
        260,
        85,
        143,
        73,
        248,
        223,
        264,
        144,
        116,
        380,
        357,
        75,
        159,
        320,
        141,
        353,
        152,
        158,
        214,
        181,
        1,
        379,
        212,
        280,
        364,
        396,
        95,
        188,
        384,
        342,
        76,
        269,
        339,
        338,
        209,
        138,
        311,
        289,
        315,
        193,
        24,
        222,
        125,
        10,
        47,
        356,
        63,
        40,
        310,
        54,
        218,
        57,
        374,
        98,
        84,
        298,
        23,
        17,
        230,
        68,
        187,
        155,
        259,
        221,
        66,
        270,
        232,
        119,
        210,
        133,
        250,
        179,
        3,
        198,
        117,
        44,
        190,
        65,
        386,
        373,
        127,
        294,
        30,
        191,
        174,
        389,
        352,
        274,
        306,
        295,
        242,
        337,
        376,
        16,
        278,
        149,
        208,
        233,
        72,
        166,
        325,
        43,
        93,
        302,
        56,
        263,
        371,
        313,
        67,
        157,
        309,
        257,
        55,
        383,
        387,
        100,
        291,
        77,
        393,
        173,
        204,
        279,
        236,
        369,
        297,
        88,
        163,
        345,
        322,
        399,
        385,
        203,
        362,
        336,
        38,
        161,
        176,
        112,
        34,
        365,
        132,
        194,
        27,
        19,
        60,
        25,
        375,
        99,
        126,
        14,
        96,
        80,
        251,
        252,
        6,
        8,
        39,
        131,
        177,
        370,
        21,
        7,
        45,
        241,
        137,
        335,
        146,
        308,
        59,
        89,
        217,
        134,
        271,
        4,
        107,
        189,
        0,
        262,
        118,
        243,
        326,
        142,
        265,
        129,
        102,
        397,
        101,
        69,
        42,
        151,
        254,
        333,
        355,
        120,
        135,
        324,
        172,
        331,
        196,
        52,
        296,
        318,
        211,
        168,
        226,
        229,
        234,
        35,
        105,
        381,
        78,
        148,
        303,
        328,
        317,
        244,
        334,
        349,
        390,
        136,
        354,
        235,
        199,
        228,
        2,
        305,
        366,
        12,
        239,
        286,
        178,
        50,
        83,
        377,
        267,
        276,
        301,
        86,
        327,
        92,
        185,
        18,
        292,
        41,
        323,
        33,
        258,
        123,
        122,
        150,
        64,
        321,
        81,
        206,
        121,
        114,
        215,
        392,
        183,
        28,
        300,
        341,
        340,
        287,
        169,
        36,
        200,
        398,
        165,
        32,
        382,
        160,
        5,
        46,
        363,
        170,
        394,
        249,
        272,
        186,
        110,
        11,
        192,
        22,
        167,
        195,
        90,
        261,
        246,
        284,
        358,
        71,
        70,
        240,
        256,
        275,
        316,
        37,
        227,
        255,
        184,
        156,
        106,
        299,
        97,
        145,
        360,
        224,
        277,
        238,
        113,
        147,
        216,
        128,
        372,
        290,
        312,
        130,
        164,
        361,
        94,
        281,
        175,
        104,
        329,
        13,
        109,
        48,
        207,
        378,
        111,
        49,
        332,
        220,
        359,
        115,
        205,
        285,
        348,
        307,
        388,
        180,
        368,
        293,
        319
    ],
    "Nb of functions evaluations": 200010,
    "Computational time in seconds": 529.8765799999237,
    "Stopping criterion in evaluations": 200000
}